Cars = 1..200;
Options = 1..5;
Classes = 1..28;
sequenceMinCapacity = [0, 0, 0, 0, 0];
sequenceMaxCapacity = [1, 2, 1, 2, 1];
sequenceSize = [2, 3, 3, 5, 5];
numOrdered = [6, 1, 9, 1, 2, 1, 10, 2, 18, 6, 4, 1, 7, 3, 4, 15, 2, 13, 8, 6, 36, 2, 21, 5, 2, 1, 8, 6];
classHasOption = [| true, false,  true,  true, false
                  | true, false,  true,  true,  true
                  |false,  true,  true, false, false
                  |false, false,  true,  true,  true
                  | true,  true,  true,  true, false
                  | true,  true,  true,  true,  true
                  |false, false,  true, false, false
                  | true, false, false,  true,  true
                  |false,  true, false,  true, false
                  |false,  true, false, false,  true
                  |false, false, false,  true,  true
                  |false,  true,  true,  true,  true
                  | true,  true,  true, false, false
                  |false,  true,  true,  true, false
                  | true, false, false, false,  true
                  | true, false, false, false, false
                  | true,  true, false,  true,  true
                  | true,  true, false, false, false
                  | true, false,  true, false, false
                  | true, false, false, false, false
                  |false,  true, false, false, false
                  | true, false,  true, false,  true
                  | true,  true, false, false, false
                  |false, false,  true, false, false
                  |false,  true, false, false,  true
                  |false, false, false, false, false
                  |false, false, false, false, false
                  |false, false, false, false, false|];
optionOrdering = [1, 3, 5, 2, 4];
